TCS_Benchmarks/redos_fix/regexlib1_output_distinct_1538_1537_114_0.smt2
(set-logic QF_S)
(declare-const x String)
(assert (str.in.re x (re.inter (re.*  (str.to.re "\u{2e}") )  (re.++ (re.*  (str.to.re "\u{2e}") ) (re.++  (re.++ (re.* (re.union (re.range "\u{09}" "\u{0d}") (re.range "\u{20}" "\u{20}") (re.range "\u{85}" "\u{85}") (re.range "\u{a0}" "\u{a0}")) ) (re.++ (re.*  (re.union  (str.to.re "\u{30}") (re.union  (str.to.re "\u{7c}") (re.union  (str.to.re "\u{4f}")  (str.to.re "\u{6f}")))) ) (re.++ (re.*  (re.union  (re.++  (str.to.re "\u{66}") (re.++  (str.to.re "\u{66}") (re.++  (str.to.re "\u{69}") (re.++  (str.to.re "\u{63}")  (str.to.re "\u{65}")))))  (re.++  (str.to.re "\u{46}") (re.++  (str.to.re "\u{46}") (re.++  (str.to.re "\u{49}") (re.++  (str.to.re "\u{43}")  (str.to.re "\u{45}")))))) ) (re.*  (str.to.re "\u{2e}") )))) (re.* (re.union (re.range "\u{09}" "\u{0d}") (re.range "\u{20}" "\u{20}") (re.range "\u{85}" "\u{85}") (re.range "\u{a0}" "\u{a0}")) ))) (re.* (re.union (re.range "\u{09}" "\u{0d}") (re.range "\u{20}" "\u{20}") (re.range "\u{85}" "\u{85}") (re.range "\u{a0}" "\u{a0}")) ) )))
(check-sat)
(get-model)