TCS_Benchmarks/redos_fix/regexlib1_output_distinct_1538_1537_114_0.txt
\.*
(\.*)(\s*[0|Oo]*(ffice|FFICE)*\.*)(\s*)
\s*